(set-info :Origin "This instance was generated by: BanditFuzz-- an RL fuzzer for SMT solvers" )
(set-info :Author "Joe Scott, Fed Mora, Vijay Ganesh" )
(set-info :Contact "Joe Scott, joseph.scott@uwaterloo.ca")
(set-logic QF_BV)
(declare-const bool_0 Bool)
(declare-const bool_1 Bool)
(declare-const bool_2 Bool)
(declare-const bool_3 Bool)
(declare-const bool_4 Bool)
(declare-const bv_0 (_ BitVec 32))
(declare-const bv_1 (_ BitVec 32))
(declare-const bv_2 (_ BitVec 32))
(declare-const bv_3 (_ BitVec 32))
(declare-const bv_4 (_ BitVec 32))
(assert (bvule (bvnor (bvshl #x9570d613  bv_4) (bvnor bv_4 #x9fc4f0df )) (bvlshr (bvmul #xde367ea8  bv_0) (bvnor #xa3a092fa  #xd203a08b ))))
(assert (and (bvsle (bvnor #xcef14829  bv_2) (bvsrem #xddd5f741  bv_2)) (bvult (bvsrem #x0cbd020c  bv_0) (bvurem #xeea772cc  #xe3646310 ))))
(assert (bvult (bvashr (bvsdiv #xe299198a  #x2e2ca2a6 ) (bvor #x8ddcd9ff  #xd65caf49 )) (bvudiv (bvxor bv_2 bv_3) (bvsmod bv_4 #x89985af7 ))))
(assert (bvuge (bvlshr (bvsdiv bv_3 #x8014494d ) (bvand bv_0 #xd3a1e4bf )) (bvxor (bvurem bv_2 #x5f8efab6 ) (bvudiv bv_2 bv_2))))
(assert (bvslt (bvxnor (bvmul #x1b511a59  bv_0) (bvsmod bv_0 bv_4)) (bvnor (bvxnor bv_2 #x945647cd ) (bvshl #x125349a5  bv_4))))
(check-sat)
(exit)
